Running HiGHS 1.2.0 [date: 2021-07-09, git hash: n/a]
Copyright (c) 2022 ERGO-Code under MIT licence terms
Presolving model
356 rows, 632 cols, 1515 nonzeros
355 rows, 631 cols, 1513 nonzeros
Objective function is integral with scale 100

Solving MIP model with:
   355 rows
   631 cols (297 binary, 297 integer, 37 implied int., 0 continuous)
   1513 nonzeros

        Nodes      |    B&B Tree     |            Objective Bounds              |  Dynamic Constraints |       Work      
     Proc. InQueue |  Leaves   Expl. | BestBound       BestSol              Gap |   Cuts   InLp Confl. | LpIters     Time

         0       0         0   0.00%   0               inf                  inf        0      0      0         0     0.0s
         0       0         0   0.00%   20536.959009    inf                  inf        0      0      2       413     0.1s
 L       0       0         0   0.00%   20601.18157     21504.55           4.20%      538     97    346      1027     3.4s

Solving report
  Status            Optimal
  Primal bound      21504.55
  Dual bound        20601.19
  Gap               4.2% (tolerance: 5%)
  Solution status   feasible
                    21504.55 (objective)
                    0 (bound viol.)
                    1.34183846833e-13 (int. viol.)
                    0 (row viol.)
  Timing            3.41 (total)
                    0.00 (presolve)
                    0.00 (postsolve)
  Nodes             1
  LP iterations     1736 (total)
                    0 (strong br.)
                    614 (separation)
                    708 (heuristics)

[Phase 0] ETL from database...

================================================================
  JK Tyre PCR Curing MILP Scheduler v1
  Plan start  : 2026-02-01 07:00
  Horizon     : 28 days (40,320 min/press)
  Changeover  : 360 min | Max/shift: 3
  Mould clean : 180 min every 12,000 units
  MILP limits : time=600s | rel_gap=0.05
================================================================

[Phase 1] Preparing SKU table...
  [Prep] Schedulable: 51/57 | Machines: 90 | Demand: 392,645

[Phase 2] Building continuity blocks...
  [Cont] SKU 1325215813079TUNE5: group cap 9,484 < demand 13,636 -> 4,152 units to LP
  [Cont] SKU 1325214617107MSXT0: group cap 5,376 < demand 9,849 -> 4,473 units to LP
  [Cont] SKU 1225219Z15008SXC11: group cap 17,916 < demand 19,963 -> 2,047 units to LP
  [Cont] SKU 1D25216814008QXPC0: group cap 12,096 < demand 13,003 -> 907 units to LP
  [Cont] SKU 1325221417096HURL0: group cap 35,280 < demand 36,524 -> 1,244 units to LP
  [Cont] SKU 1325225518111HRHB0: group cap 8,960 < demand 14,293 -> 5,333 units to LP
  [Cont] SKU 1325219515091HURL2: group cap 21,504 < demand 22,541 -> 1,037 units to LP
  [Cont] SKU 1325221318095HURL0: group cap 16,976 < demand 23,293 -> 6,317 units to LP
  [Cont] 214 rows | Machines committed: 90 | Locked mins: 2,843,570 | SKUs with LP remainder: 8
  [MILP Input] 38 SKUs | Remaining demand: 81,364 units

[Phase 3] Solving MILP...
  [MILP] 632 vars (297 cycle + 297 binary + 38 slack) | 425 constraints | eps: 0.01
  [MILP] Pairs after top-8 filter: 297 (was 1015 before filter)
  [MILP] Eff capacity range: 0-40,320 min/press
  [MILP] Solving (time limit 600s, gap tol 5.0%) — streaming HiGHS log:
  [MILP] status=Optimization terminated successfully. (HiGHS Status 7: Optimal) | Unmet units: 21,504 | Active pairs: 55

[Phase 4] Extracting integer cycles (no rounding loss)...
  [Extract] Rows: 55 | Units: 59,878 | Changeovers: 31 | CO time: 186.0 hrs

[Phase 5] Building shift-wise schedule...
  [Build] Total rows: 7260 | Prod qty: 371,978 | Changeovers: 31 | Cleanings: 90

================================================================
  Total demand    :    394,027
  Units planned   :    371,978  (94.4%)
  Gap             :     22,049
  Avg press util  : 92.83388888888891%
  Changeover rows :         31
  Mould clean rows:         90
  Fully met SKUs  :         23
  Partial SKUs    :         20
  Unmet SKUs      :          8
  Unschedulable   :          6
================================================================

  [Export] Saved → /Users/anmolsaini/Documents/jk-btp-lp-scheduler-main/output/CTP_PCR_Curing_MILP_v1_PlanSchedule_Feb_2026-02-01_28Days.xlsx
